40
     9    61    58    50    58    86    69    25    17    73    81     5    37    33    48    18     1    34     3    92    17    95    57    62    23    88    97    63    83    38    92    36    91    24    86    23    69    78     3    70
     5     4     2     8     9     1     3     7     4     3     7     3     1     6     7     3    10     9     7     9     9     9     7     1     6     8     9     9     4     6     8     8     9     5     4     9     2     6     9     8
   257     0   558     0     0   516     0   585   169     0   513     0   576     0     0   653   134     0   168     0   633     0   391    87   711   694   251     0   627     0   501   222     0   637   717     0   783   797     0     0
